(set-logic QF_BV)
(declare-fun _substvar_90_ () (_ BitVec 47))
(declare-fun _substvar_148_ () Bool)
(declare-fun _substvar_61_ () (_ BitVec 47))
(declare-fun _substvar_85_ () (_ BitVec 47))
(declare-fun _substvar_97_ () (_ BitVec 47))
(assert (and true true true true true true true true true true true true true true true true true true true true true true true true true true true true true true true true true true true true true true true true true true true true true true true true true true true true true true true true true true true true true true true true true true true true true true true true true true true true true true true true true true true true true true true true true true true true true true true true true true true true true true true true true true true true true true true true true true true true true true true true true true true true true true true true true true true true true true true true true true true true true true true true true true true true true true true true true true true true (= _substvar_97_ (_ bv0 47)) (ite _substvar_148_ (= _substvar_85_ (_ bv0 47)) (= _substvar_85_ (concat (_ bv0 46) (bvxor (_ bv0 1) ((_ extract 41 41) _substvar_97_))))) (= _substvar_90_ (concat ((_ extract 45 0) _substvar_85_) (bvxor ((_ extract 46 46) _substvar_85_) ((_ extract 41 41) _substvar_85_)))) (= _substvar_61_ (concat ((_ extract 45 0) _substvar_90_) (_ bv0 1))) true true true (= (= (_ bv0 47) _substvar_61_) false)))
(check-sat)
(exit)
